p tdp 94 93
56 85
30 14
53 93
10 26
44 83
1 71
40 43
75 52
87 24
89 33
90 84
67 15
69 45
49 91
20 29
6 89
21 23
9 72
68 92
91 84
79 8
21 19
87 37
31 48
94 73
58 71
4 10
48 64
82 53
7 63
70 19
38 12
93 43
30 13
35 27
25 38
57 18
1 41
94 81
46 54
11 35
81 30
88 74
85 11
29 49
44 76
62 80
8 41
59 85
34 17
80 93
88 90
3 80
29 16
72 43
51 52
67 65
69 74
92 63
50 52
72 32
5 46
82 87
66 86
36 39
60 12
51 71
48 2
5 61
52 14
78 47
22 17
35 77
42 45
70 44
9 66
65 7
17 28
53 11
17 12
55 71
15 2
14 47
88 36
46 12
19 86
4 6
54 7
31 41
6 3
28 84
27 18
28 4
